Route #0: 57 55 54 53 56 58 60 59
Route #1: 32 33 31 35 37 38 39 36 34
Route #2: 91 89 88 85 84 82 83 86 87 90
Route #3: 11 12 14 16 19 15 17 18 13
Route #4: 66 68 64 61 72 81 78 76 71 70 73 77 79 80
Route #5: 47 49 52 50 51 48 45 44 46 42 40 41 43
Route #6: 98 96 95 94 92 93 97 100 99 3
Route #7: 75 1 2 4 6 9 8 7 5 10
Route #8: 69 62 74 63 65 67
Route #9: 20 21 22 24 25 27 29 30 28 26 23
Cost 838.866656006669
Time 39
